INPUT_PARAMETERS
calculation				scf
#relax_nmax                             100
basis_type 				lcao
#ks_solver  				genelpa
ecutwfc    				100
scf_thr        				1e-7
scf_nmax      				100
#stress_thr                             1.5
gamma_only 				0
kspacing                                0.1
smearing_method   			gauss
smearing_sigma                          0.003
mixing_type				pulay
mixing_beta                             0.6
#mixing_gg0                             1.5
dft_functional                          PBESOL
symmetry                                0
#out_stru                               1
cal_force                               1
cal_stress                              1

